(set-info :smt-lib-version 2.6)
(set-logic QF_NIA)
(set-info :source |
Generated by: Cristina Borralleras, Daniel Larraz, Albert Oliveras, Enric Rodriguez-Carbonell, Albert Rubio
Generated on: 2017-04-27
Generator: VeryMax
Application: Termination proving
Target solver: barcelogic
|)
(set-info :license "https://creativecommons.org/licenses/by/4.0/")
(set-info :category "industrial")
(set-info :status unknown)
(declare-fun Nl3arg11 () Int)
(declare-fun Nl3arg21 () Int)
(declare-fun Nl3arg31 () Int)
(declare-fun Nl3arg41 () Int)
(declare-fun Nl3arg12 () Int)
(declare-fun Nl3arg22 () Int)
(declare-fun Nl3arg32 () Int)
(declare-fun Nl3arg42 () Int)
(declare-fun lam0n0 () Int)
(declare-fun lam0n1 () Int)
(declare-fun lam0n2 () Int)
(declare-fun lam0n3 () Int)
(declare-fun Nl3CT1 () Int)
(declare-fun Nl3CT2 () Int)
(declare-fun lam1n0 () Int)
(declare-fun lam1n1 () Int)
(declare-fun lam1n2 () Int)
(declare-fun lam1n3 () Int)
(declare-fun lam2n0 () Int)
(declare-fun lam2n1 () Int)
(declare-fun lam2n2 () Int)
(declare-fun lam2n3 () Int)
(declare-fun lam3n0 () Int)
(declare-fun lam3n1 () Int)
(declare-fun lam3n2 () Int)
(declare-fun lam3n3 () Int)
(declare-fun lam4n0 () Int)
(declare-fun lam4n1 () Int)
(declare-fun lam4n2 () Int)
(declare-fun lam4n3 () Int)
(declare-fun arg1 () Int)
(declare-fun arg2 () Int)
(declare-fun undef5 () Int)
(declare-fun arg3 () Int)
(declare-fun arg4 () Int)
(declare-fun undef6 () Int)
(declare-fun undef7 () Int)
(declare-fun undef8 () Int)
(declare-fun lam8n0 () Int)
(declare-fun lam8n1 () Int)
(declare-fun lam8n2 () Int)
(declare-fun lam8n3 () Int)
(declare-fun RFN1_CT () Int)
(declare-fun RFN1_arg1 () Int)
(declare-fun RFN1_arg2 () Int)
(declare-fun RFN1_arg3 () Int)
(declare-fun RFN1_arg4 () Int)
(declare-fun lam6n0 () Int)
(declare-fun lam6n1 () Int)
(declare-fun lam6n2 () Int)
(declare-fun lam6n3 () Int)
(declare-fun lam7n0 () Int)
(declare-fun lam7n1 () Int)
(declare-fun lam7n2 () Int)
(declare-fun lam7n3 () Int)
(declare-fun lam5n0 () Int)
(declare-fun lam5n1 () Int)
(declare-fun lam5n2 () Int)
(declare-fun lam5n3 () Int)
(assert ( and ( <= ( - 1 ) Nl3arg11 ) ( <= Nl3arg11 1 ) ( <= ( - 1 ) Nl3arg21 ) ( <= Nl3arg21 1 ) ( <= ( - 1 ) Nl3arg31 ) ( <= Nl3arg31 1 ) ( <= ( - 1 ) Nl3arg41 ) ( <= Nl3arg41 1 ) ( <= ( - 1 ) Nl3arg12 ) ( <= Nl3arg12 1 ) ( <= ( - 1 ) Nl3arg22 ) ( <= Nl3arg22 1 ) ( <= ( - 1 ) Nl3arg32 ) ( <= Nl3arg32 1 ) ( <= ( - 1 ) Nl3arg42 ) ( <= Nl3arg42 1 ) ))
(assert ( or ( and ( >= lam0n0 0 ) ( >= lam0n1 0 ) ( >= lam0n2 0 ) ( >= lam0n3 0 ) ( > ( + ( * 1 lam0n0 ) ( * Nl3CT1 lam0n2 ) ( * Nl3CT2 lam0n3 ) ( - 1 ) ) 0 ) ( = ( + ( * ( - 1 ) lam0n0 ) ( * Nl3arg11 lam0n2 ) ( * Nl3arg12 lam0n3 ) ) 0 ) ( = ( + ( * Nl3arg21 lam0n2 ) ( * Nl3arg22 lam0n3 ) ) 0 ) ( = ( + ( * Nl3arg31 lam0n2 ) ( * Nl3arg32 lam0n3 ) ) 0 ) ( = ( + ( * Nl3arg41 lam0n2 ) ( * Nl3arg42 lam0n3 ) ) 0 ) ( = ( * ( - 1 ) lam0n1 ) 0 ) ) ( and ( >= lam1n0 0 ) ( >= lam1n1 0 ) ( >= lam1n2 0 ) ( >= lam1n3 0 ) ( > ( + ( * 1 lam1n0 ) ( * Nl3CT1 lam1n2 ) ( * Nl3CT2 lam1n3 ) ( - 1 ( + ( + ( + ( + Nl3CT1 ( * Nl3arg11 0 ) ) ( * Nl3arg21 0 ) ) ( * Nl3arg31 0 ) ) ( * Nl3arg41 0 ) ) ) ) 0 ) ( = ( + ( * ( - 1 ) lam1n0 ) ( * Nl3arg11 lam1n2 ) ( * Nl3arg12 lam1n3 ) ) 0 ) ( = ( + ( * Nl3arg21 lam1n2 ) ( * Nl3arg22 lam1n3 ) ) 0 ) ( = ( + ( * Nl3arg31 lam1n2 ) ( * Nl3arg32 lam1n3 ) ) 0 ) ( = ( + ( * Nl3arg41 lam1n2 ) ( * Nl3arg42 lam1n3 ) ) 0 ) ( = ( + ( * ( - 1 ) lam1n1 ) ( - ( + 0 ( * Nl3arg11 1 ) ) ) ) 0 ) ( = ( - ( + 0 ( * Nl3arg21 1 ) ) ) 0 ) ( = ( - ( + 0 ( * Nl3arg31 1 ) ) ) 0 ) ( = ( - ( + 0 ( * Nl3arg41 1 ) ) ) 0 ) ) ))
(assert ( or ( and ( >= lam0n0 0 ) ( >= lam0n1 0 ) ( >= lam0n2 0 ) ( >= lam0n3 0 ) ( > ( + ( * 1 lam0n0 ) ( * Nl3CT1 lam0n2 ) ( * Nl3CT2 lam0n3 ) ( - 1 ) ) 0 ) ( = ( + ( * ( - 1 ) lam0n0 ) ( * Nl3arg11 lam0n2 ) ( * Nl3arg12 lam0n3 ) ) 0 ) ( = ( + ( * Nl3arg21 lam0n2 ) ( * Nl3arg22 lam0n3 ) ) 0 ) ( = ( + ( * Nl3arg31 lam0n2 ) ( * Nl3arg32 lam0n3 ) ) 0 ) ( = ( + ( * Nl3arg41 lam0n2 ) ( * Nl3arg42 lam0n3 ) ) 0 ) ( = ( * ( - 1 ) lam0n1 ) 0 ) ) ( and ( >= lam2n0 0 ) ( >= lam2n1 0 ) ( >= lam2n2 0 ) ( >= lam2n3 0 ) ( > ( + ( * 1 lam2n0 ) ( * Nl3CT1 lam2n2 ) ( * Nl3CT2 lam2n3 ) ( - 1 ( + ( + ( + ( + Nl3CT2 ( * Nl3arg12 0 ) ) ( * Nl3arg22 0 ) ) ( * Nl3arg32 0 ) ) ( * Nl3arg42 0 ) ) ) ) 0 ) ( = ( + ( * ( - 1 ) lam2n0 ) ( * Nl3arg11 lam2n2 ) ( * Nl3arg12 lam2n3 ) ) 0 ) ( = ( + ( * Nl3arg21 lam2n2 ) ( * Nl3arg22 lam2n3 ) ) 0 ) ( = ( + ( * Nl3arg31 lam2n2 ) ( * Nl3arg32 lam2n3 ) ) 0 ) ( = ( + ( * Nl3arg41 lam2n2 ) ( * Nl3arg42 lam2n3 ) ) 0 ) ( = ( + ( * ( - 1 ) lam2n1 ) ( - ( + 0 ( * Nl3arg12 1 ) ) ) ) 0 ) ( = ( - ( + 0 ( * Nl3arg22 1 ) ) ) 0 ) ( = ( - ( + 0 ( * Nl3arg32 1 ) ) ) 0 ) ( = ( - ( + 0 ( * Nl3arg42 1 ) ) ) 0 ) ) ))
(assert ( and ( <= ( + 1 ( * ( - 1 ) arg1 ) ) 0 ) ( <= ( + 1 ( * ( - 1 ) arg2 ) ) 0 ) ( not ( <= undef5 0 ) ) ( <= ( + ( * ( - 1 ) arg3 ) arg4 ) 0 ) ( <= ( + ( + ( + ( + ( + Nl3CT1 ( * Nl3arg11 0 ) ) ( * Nl3arg21 0 ) ) ( * Nl3arg31 0 ) ) ( * Nl3arg41 0 ) ) ( * ( + 0 ( * Nl3arg11 1 ) ) undef5 ) ( * ( + 0 ( * Nl3arg21 1 ) ) undef6 ) ( * ( + 0 ( * Nl3arg31 1 ) ) undef7 ) ( * ( + 0 ( * Nl3arg41 1 ) ) undef8 ) ) 0 ) ( <= ( + ( + ( + ( + ( + Nl3CT2 ( * Nl3arg12 0 ) ) ( * Nl3arg22 0 ) ) ( * Nl3arg32 0 ) ) ( * Nl3arg42 0 ) ) ( * ( + 0 ( * Nl3arg12 1 ) ) undef5 ) ( * ( + 0 ( * Nl3arg22 1 ) ) undef6 ) ( * ( + 0 ( * Nl3arg32 1 ) ) undef7 ) ( * ( + 0 ( * Nl3arg42 1 ) ) undef8 ) ) 0 ) ))
(assert ( or ( and ( and ( >= lam8n0 0 ) ( >= lam8n1 0 ) ( >= lam8n2 0 ) ( >= lam8n3 0 ) ( > ( + ( * 1 lam8n0 ) ( * Nl3CT1 lam8n2 ) ( * Nl3CT2 lam8n3 ) ( - 1 ( - ( + ( + ( + ( + RFN1_CT ( * RFN1_arg1 0 ) ) ( * RFN1_arg2 0 ) ) ( * RFN1_arg3 0 ) ) ( * RFN1_arg4 0 ) ) RFN1_CT ) ) ) 0 ) ( = ( + ( * ( - 1 ) lam8n0 ) ( * Nl3arg11 lam8n2 ) ( * Nl3arg12 lam8n3 ) ( - ( - RFN1_arg1 ) ) ) 0 ) ( = ( + ( * Nl3arg21 lam8n2 ) ( * Nl3arg22 lam8n3 ) ( - ( - RFN1_arg2 ) ) ) 0 ) ( = ( + ( * Nl3arg31 lam8n2 ) ( * Nl3arg32 lam8n3 ) ( - ( - RFN1_arg3 ) ) ) 0 ) ( = ( + ( * Nl3arg41 lam8n2 ) ( * Nl3arg42 lam8n3 ) ( - ( - RFN1_arg4 ) ) ) 0 ) ( = ( + ( * ( - 1 ) lam8n1 ) ( - ( + 0 ( * RFN1_arg1 1 ) ) ) ) 0 ) ( = ( - ( + 0 ( * RFN1_arg2 1 ) ) ) 0 ) ( = ( - ( + 0 ( * RFN1_arg3 1 ) ) ) 0 ) ( = ( - ( + 0 ( * RFN1_arg4 1 ) ) ) 0 ) ) ( and ( and ( >= lam6n0 0 ) ( >= lam6n1 0 ) ( >= lam6n2 0 ) ( >= lam6n3 0 ) ( > ( + ( * 1 lam6n0 ) ( * Nl3CT1 lam6n2 ) ( * Nl3CT2 lam6n3 ) ( - 1 ( - RFN1_CT ) ) ) 0 ) ( = ( + ( * ( - 1 ) lam6n0 ) ( * Nl3arg11 lam6n2 ) ( * Nl3arg12 lam6n3 ) ( - ( - RFN1_arg1 ) ) ) 0 ) ( = ( + ( * Nl3arg21 lam6n2 ) ( * Nl3arg22 lam6n3 ) ( - ( - RFN1_arg2 ) ) ) 0 ) ( = ( + ( * Nl3arg31 lam6n2 ) ( * Nl3arg32 lam6n3 ) ( - ( - RFN1_arg3 ) ) ) 0 ) ( = ( + ( * Nl3arg41 lam6n2 ) ( * Nl3arg42 lam6n3 ) ( - ( - RFN1_arg4 ) ) ) 0 ) ( = ( * ( - 1 ) lam6n1 ) 0 ) ) ( and ( >= lam7n0 0 ) ( >= lam7n1 0 ) ( >= lam7n2 0 ) ( >= lam7n3 0 ) ( > ( + ( * 1 lam7n0 ) ( * Nl3CT1 lam7n2 ) ( * Nl3CT2 lam7n3 ) ( - 1 ( + ( - ( + ( + ( + ( + RFN1_CT ( * RFN1_arg1 0 ) ) ( * RFN1_arg2 0 ) ) ( * RFN1_arg3 0 ) ) ( * RFN1_arg4 0 ) ) RFN1_CT ) 1 ) ) ) 0 ) ( = ( + ( * ( - 1 ) lam7n0 ) ( * Nl3arg11 lam7n2 ) ( * Nl3arg12 lam7n3 ) ( - ( - RFN1_arg1 ) ) ) 0 ) ( = ( + ( * Nl3arg21 lam7n2 ) ( * Nl3arg22 lam7n3 ) ( - ( - RFN1_arg2 ) ) ) 0 ) ( = ( + ( * Nl3arg31 lam7n2 ) ( * Nl3arg32 lam7n3 ) ( - ( - RFN1_arg3 ) ) ) 0 ) ( = ( + ( * Nl3arg41 lam7n2 ) ( * Nl3arg42 lam7n3 ) ( - ( - RFN1_arg4 ) ) ) 0 ) ( = ( + ( * ( - 1 ) lam7n1 ) ( - ( + 0 ( * RFN1_arg1 1 ) ) ) ) 0 ) ( = ( - ( + 0 ( * RFN1_arg2 1 ) ) ) 0 ) ( = ( - ( + 0 ( * RFN1_arg3 1 ) ) ) 0 ) ( = ( - ( + 0 ( * RFN1_arg4 1 ) ) ) 0 ) ) ) ) ( and ( >= lam5n0 0 ) ( >= lam5n1 0 ) ( >= lam5n2 0 ) ( >= lam5n3 0 ) ( > ( + ( * 1 lam5n0 ) ( * Nl3CT1 lam5n2 ) ( * Nl3CT2 lam5n3 ) ( - 1 ) ) 0 ) ( = ( + ( * ( - 1 ) lam5n0 ) ( * Nl3arg11 lam5n2 ) ( * Nl3arg12 lam5n3 ) ) 0 ) ( = ( + ( * Nl3arg21 lam5n2 ) ( * Nl3arg22 lam5n3 ) ) 0 ) ( = ( + ( * Nl3arg31 lam5n2 ) ( * Nl3arg32 lam5n3 ) ) 0 ) ( = ( + ( * Nl3arg41 lam5n2 ) ( * Nl3arg42 lam5n3 ) ) 0 ) ( = ( * ( - 1 ) lam5n1 ) 0 ) ) ))
(check-sat)
(exit)
